certificates/rado_a11_c194_N31.cnf
c Rad2 upper bound instance: x1 + 11*x2 - x3 = 194, interval [1,31]
p cnf 31 172
1 5 18 0
-1 -5 -18 0
1 16 19 0
-1 -16 -19 0
1 20 27 0
-1 -20 -27 0
2 6 18 0
-2 -6 -18 0
2 17 19 0
-2 -17 -19 0
2 20 28 0
-2 -20 -28 0
3 7 18 0
-3 -7 -18 0
3 18 19 0
-3 -18 -19 0
3 20 29 0
-3 -20 -29 0
4 8 18 0
-4 -8 -18 0
4 19 0
-4 -19 0
4 20 30 0
-4 -20 -30 0
5 9 18 0
-5 -9 -18 0
5 19 20 0
-5 -19 -20 0
5 20 31 0
-5 -20 -31 0
6 10 18 0
-6 -10 -18 0
6 19 21 0
-6 -19 -21 0
7 11 18 0
-7 -11 -18 0
7 19 22 0
-7 -19 -22 0
1 8 17 0
-1 -8 -17 0
8 12 18 0
-8 -12 -18 0
8 19 23 0
-8 -19 -23 0
2 9 17 0
-2 -9 -17 0
9 13 18 0
-9 -13 -18 0
9 19 24 0
-9 -19 -24 0
3 10 17 0
-3 -10 -17 0
10 14 18 0
-10 -14 -18 0
10 19 25 0
-10 -19 -25 0
4 11 17 0
-4 -11 -17 0
11 15 18 0
-11 -15 -18 0
11 19 26 0
-11 -19 -26 0
5 12 17 0
-5 -12 -17 0
12 16 18 0
-12 -16 -18 0
12 19 27 0
-12 -19 -27 0
6 13 17 0
-6 -13 -17 0
13 17 18 0
-13 -17 -18 0
13 19 28 0
-13 -19 -28 0
7 14 17 0
-7 -14 -17 0
14 18 0
-14 -18 0
14 19 29 0
-14 -19 -29 0
8 15 17 0
-8 -15 -17 0
15 18 19 0
-15 -18 -19 0
15 19 30 0
-15 -19 -30 0
9 16 17 0
-9 -16 -17 0
16 18 20 0
-16 -18 -20 0
16 19 31 0
-16 -19 -31 0
10 17 0
-10 -17 0
17 18 21 0
-17 -18 -21 0
11 17 18 0
-11 -17 -18 0
18 22 0
-18 -22 0
12 17 19 0
-12 -17 -19 0
18 19 23 0
-18 -19 -23 0
2 16 20 0
-2 -16 -20 0
13 17 20 0
-13 -17 -20 0
18 20 24 0
-18 -20 -24 0
3 16 21 0
-3 -16 -21 0
14 17 21 0
-14 -17 -21 0
18 21 25 0
-18 -21 -25 0
4 16 22 0
-4 -16 -22 0
15 17 22 0
-15 -17 -22 0
18 22 26 0
-18 -22 -26 0
5 16 23 0
-5 -16 -23 0
16 17 23 0
-16 -17 -23 0
18 23 27 0
-18 -23 -27 0
6 16 24 0
-6 -16 -24 0
17 24 0
-17 -24 0
18 24 28 0
-18 -24 -28 0
7 16 25 0
-7 -16 -25 0
17 18 25 0
-17 -18 -25 0
18 25 29 0
-18 -25 -29 0
8 16 26 0
-8 -16 -26 0
17 19 26 0
-17 -19 -26 0
18 26 30 0
-18 -26 -30 0
9 16 27 0
-9 -16 -27 0
17 20 27 0
-17 -20 -27 0
18 27 31 0
-18 -27 -31 0
10 16 28 0
-10 -16 -28 0
17 21 28 0
-17 -21 -28 0
11 16 29 0
-11 -16 -29 0
17 22 29 0
-17 -22 -29 0
1 15 30 0
-1 -15 -30 0
12 16 30 0
-12 -16 -30 0
17 23 30 0
-17 -23 -30 0
2 15 31 0
-2 -15 -31 0
13 16 31 0
-13 -16 -31 0
17 24 31 0
-17 -24 -31 0
