certificates/rado_a11_c194_N31.drat
18 -29 -31 0
-19 22 -31 0
-18 -30 -31 0
-4 18 -30 0
-30 -31 0
d -18 -30 -31 0
-19 -31 0
d -19 22 -31 0
-31 0
19 0
-4 0
15 22 0
d 15 17 22 0
-18 0
14 0
22 0
27 0
8 0
-29 0
-7 0
-12 0
-23 0
25 0
3 0
11 0
16 0
-10 0
-21 0
-26 0
-1 0
-9 0
17 0
6 0
30 0
5 0
13 0
-15 0
-24 0
-2 0
-20 0
0
